NAME: tsp10_20
COMMENT: 10-tsp problem (Padberg/Rinaldi)
TYPE: TSP
DIMENSION: 10
EDGE_WEIGHT_TYPE : EUC_2D
NODE_COORD_SECTION
1 29 4
2 9 29
3 35 30
4 12 12
5 13 17
6 27 21
7 1 21
8 22 9
9 23 31
10 40 3
